EUCLIDEAN
10
0.0 10.0 15.0 20.0 25.0 30.0 35.0 40.0 45.0 50.0
10.0 0.0 5.0 10.0 15.0 20.0 25.0 30.0 35.0 40.0
15.0 5.0 0.0 5.0 10.0 15.0 20.0 25.0 30.0 35.0
20.0 10.0 5.0 0.0 5.0 10.0 15.0 20.0 25.0 30.0
25.0 15.0 10.0 5.0 0.0 5.0 10.0 15.0 20.0 25.0
30.0 20.0 15.0 10.0 5.0 0.0 5.0 10.0 15.0 20.0
35.0 25.0 20.0 15.0 10.0 5.0 0.0 5.0 10.0 15.0
40.0 30.0 25.0 20.0 15.0 10.0 5.0 0.0 5.0 10.0
45.0 35.0 30.0 25.0 20.0 15.0 10.0 5.0 0.0 5.0
50.0 40.0 35.0 30.0 25.0 20.0 15.0 10.0 5.0 0.0
